Version identifier: 22.1.1.0 | 2022-11-28 | 9160aff4d
CPXPARAM_TimeLimit                               3600
Tried aggregator 1 time.
MIP Presolve eliminated 218 rows and 169 columns.
Reduced MIP has 5382 rows, 2442 columns, and 16048 nonzeros.
Reduced MIP has 2442 binaries, 0 generals, 0 SOSs, and 0 indicators.
Presolve time = 0.01 sec. (12.41 ticks)
Found incumbent of value 4131162.000000 after 0.01 sec. (15.08 ticks)
Probing time = 0.00 sec. (3.49 ticks)
Tried aggregator 1 time.
Detecting symmetries...
Reduced MIP has 5382 rows, 2442 columns, and 16048 nonzeros.
Reduced MIP has 2442 binaries, 0 generals, 0 SOSs, and 0 indicators.
Presolve time = 0.01 sec. (13.60 ticks)
Probing time = 0.01 sec. (3.49 ticks)
Clique table members: 2332.
MIP emphasis: balance optimality and feasibility.
MIP search method: dynamic search.
Parallel mode: deterministic, using up to 8 threads.
Root relaxation solution time = 0.01 sec. (10.46 ticks)

        Nodes                                         Cuts/
   Node  Left     Objective  IInf  Best Integer    Best Bound    ItCnt     Gap

*     0+    0                      4131162.0000        0.0000           100.00%
*     0+    0                      2639461.0000        0.0000           100.00%
*     0+    0                       360884.0000        0.0000           100.00%
*     0+    0                       319238.0000        0.0000           100.00%
*     0+    0                       235477.0000        0.0000           100.00%
*     0+    0                       190333.0000        0.0000           100.00%
      0     0    93774.0000   100   190333.0000    93774.0000      166   50.73%
      0     0   106217.5000   100   190333.0000     Cuts: 155      257   44.19%
*     0+    0                       139331.0000   106217.5000            23.77%
      0     0   118334.5000    90   139331.0000     Cuts: 154      367   15.07%
*     0+    0                       139164.0000   118334.5000            14.97%
Detecting symmetries...
*     0+    0                       138705.0000   118334.5000            14.69%

Repeating presolve.
Tried aggregator 1 time.
MIP Presolve eliminated 4672 rows and 1870 columns.
MIP Presolve modified 465 coefficients.
Reduced MIP has 710 rows, 572 columns, and 2455 nonzeros.
Reduced MIP has 572 binaries, 0 generals, 0 SOSs, and 0 indicators.
Presolve time = 0.00 sec. (4.67 ticks)
Probing time = 0.00 sec. (0.57 ticks)
Tried aggregator 1 time.
Detecting symmetries...
MIP Presolve eliminated 11 rows and 0 columns.
Reduced MIP has 699 rows, 572 columns, and 2433 nonzeros.
Reduced MIP has 572 binaries, 0 generals, 0 SOSs, and 0 indicators.
Presolve time = 0.00 sec. (2.63 ticks)
Represolve time = 0.01 sec. (13.19 ticks)
Probing time = 0.00 sec. (0.57 ticks)
Clique table members: 596.
MIP emphasis: balance optimality and feasibility.
MIP search method: dynamic search.
Parallel mode: deterministic, using up to 8 threads.
Root relaxation solution time = 0.00 sec. (5.81 ticks)

        Nodes                                         Cuts/
   Node  Left     Objective  IInf  Best Integer    Best Bound    ItCnt     Gap

*     0+    0                       138705.0000   118334.5000            14.69%
*     0     0      integral     0   137947.0000   137947.0000      595    0.00%
Elapsed time = 0.18 sec. (147.49 ticks, tree = 0.00 MB, solutions = 10)

Implied bound cuts applied:  244

Root node processing (before b&c):
  Real time             =    0.18 sec. (147.72 ticks)
Parallel b&c, 8 threads:
  Real time             =    0.00 sec. (0.00 ticks)
  Sync time (average)   =    0.00 sec.
  Wait time (average)   =    0.00 sec.
                          ------------
Total (root+branch&cut) =    0.18 sec. (147.72 ticks)
Status: Optimal
Obj: 137947

Instalacoes abertas:
Instalação 4 aberta
Instalação 9 aberta
Instalação 20 aberta
Instalação 22 aberta

Atribuições (cliente -> instalação):
Cliente 0 -> Instalação 9
Cliente 1 -> Instalação 9
Cliente 2 -> Instalação 4
Cliente 3 -> Instalação 20
Cliente 4 -> Instalação 4
Cliente 5 -> Instalação 20
Cliente 6 -> Instalação 20
Cliente 7 -> Instalação 20
Cliente 8 -> Instalação 4
Cliente 9 -> Instalação 9
Cliente 10 -> Instalação 20
Cliente 11 -> Instalação 20
Cliente 12 -> Instalação 20
Cliente 13 -> Instalação 20
Cliente 14 -> Instalação 9
Cliente 15 -> Instalação 9
Cliente 16 -> Instalação 20
Cliente 17 -> Instalação 20
Cliente 18 -> Instalação 4
Cliente 19 -> Instalação 4
Cliente 20 -> Instalação 20
Cliente 21 -> Instalação 9
Cliente 22 -> Instalação 22
Cliente 23 -> Instalação 9
Cliente 24 -> Instalação 20
Cliente 25 -> Instalação 20
Cliente 26 -> Instalação 4
Cliente 27 -> Instalação 20
Cliente 28 -> Instalação 9
Cliente 29 -> Instalação 9
Cliente 30 -> Instalação 9
Cliente 31 -> Instalação 20
Cliente 32 -> Instalação 4
Cliente 33 -> Instalação 20
Cliente 34 -> Instalação 9
Cliente 35 -> Instalação 20
Cliente 36 -> Instalação 20
Cliente 37 -> Instalação 9
Cliente 38 -> Instalação 4
Cliente 39 -> Instalação 9
Cliente 40 -> Instalação 20
Cliente 41 -> Instalação 20
Cliente 42 -> Instalação 4
Cliente 43 -> Instalação 9
Cliente 44 -> Instalação 4
Cliente 45 -> Instalação 4
Cliente 46 -> Instalação 4
Cliente 47 -> Instalação 9
Cliente 48 -> Instalação 9
Cliente 49 -> Instalação 4
